c cksystemsgroup.github.io/unicorn
c CNF contains a total of 493 clauses.
c CNF contains a total of 118 variables.
c CNF clauses cover 1 bad states.
c Variable name mapping (17 names):
c   1: input[bit=0]
c   2: input[bit=0]
c   4: input[bit=1]
c   6: input[bit=1]
c   11: input[bit=2]
c   16: input[bit=2]
c   22: input[bit=3]
c   30: input[bit=3]
c   35: input[bit=4]
c   46: input[bit=4]
c   52: input[bit=5]
c   66: input[bit=5]
c   71: input[bit=6]
c   88: input[bit=6]
c   94: input[bit=7]
c   114: input[bit=7]
c   118: ?
p cnf 118 493
-1 -2 3 0
1 -3 0
2 -3 0
-4 -2 5 0
4 -5 0
2 -5 0
-1 -6 7 0
1 -7 0
6 -7 0
-8 0
5 7 8 -9 0
5 7 -8 9 0
5 -7 8 9 0
5 -7 -8 -9 0
-5 7 8 9 0
-5 7 -8 -9 0
-5 -7 8 -9 0
-5 -7 -8 9 0
-3 -9 10 0
3 -10 0
9 -10 0
-11 -2 12 0
11 -12 0
2 -12 0
-4 -6 13 0
4 -13 0
6 -13 0
5 7 -14 0
5 8 -14 0
-7 -8 14 0
7 8 -14 0
-5 -8 14 0
-5 -7 14 0
12 13 14 -15 0
12 13 -14 15 0
12 -13 14 15 0
12 -13 -14 -15 0
-12 13 14 15 0
-12 13 -14 -15 0
-12 -13 14 -15 0
-12 -13 -14 15 0
-1 -16 17 0
1 -17 0
16 -17 0
-18 0
15 17 18 -19 0
15 17 -18 19 0
15 -17 18 19 0
15 -17 -18 -19 0
-15 17 18 19 0
-15 17 -18 -19 0
-15 -17 18 -19 0
-15 -17 -18 19 0
-19 -20 0
19 20 0
-10 -20 21 0
10 -21 0
20 -21 0
-22 -2 23 0
22 -23 0
2 -23 0
-11 -6 24 0
11 -24 0
6 -24 0
12 13 -25 0
12 14 -25 0
-13 -14 25 0
13 14 -25 0
-12 -14 25 0
-12 -13 25 0
23 24 25 -26 0
23 24 -25 26 0
23 -24 25 26 0
23 -24 -25 -26 0
-23 24 25 26 0
-23 24 -25 -26 0
-23 -24 25 -26 0
-23 -24 -25 26 0
-4 -16 27 0
4 -27 0
16 -27 0
15 17 -28 0
15 18 -28 0
-17 -18 28 0
17 18 -28 0
-15 -18 28 0
-15 -17 28 0
26 27 28 -29 0
26 27 -28 29 0
26 -27 28 29 0
26 -27 -28 -29 0
-26 27 28 29 0
-26 27 -28 -29 0
-26 -27 28 -29 0
-26 -27 -28 29 0
-1 -30 31 0
1 -31 0
30 -31 0
-32 0
29 31 32 -33 0
29 31 -32 33 0
29 -31 32 33 0
29 -31 -32 -33 0
-29 31 32 33 0
-29 31 -32 -33 0
-29 -31 32 -33 0
-29 -31 -32 33 0
-21 -33 34 0
21 -34 0
33 -34 0
-35 -2 36 0
35 -36 0
2 -36 0
-22 -6 37 0
22 -37 0
6 -37 0
23 24 -38 0
23 25 -38 0
-24 -25 38 0
24 25 -38 0
-23 -25 38 0
-23 -24 38 0
36 37 38 -39 0
36 37 -38 39 0
36 -37 38 39 0
36 -37 -38 -39 0
-36 37 38 39 0
-36 37 -38 -39 0
-36 -37 38 -39 0
-36 -37 -38 39 0
-11 -16 40 0
11 -40 0
16 -40 0
26 27 -41 0
26 28 -41 0
-27 -28 41 0
27 28 -41 0
-26 -28 41 0
-26 -27 41 0
39 40 41 -42 0
39 40 -41 42 0
39 -40 41 42 0
39 -40 -41 -42 0
-39 40 41 42 0
-39 40 -41 -42 0
-39 -40 41 -42 0
-39 -40 -41 42 0
-4 -30 43 0
4 -43 0
30 -43 0
29 31 -44 0
29 32 -44 0
-31 -32 44 0
31 32 -44 0
-29 -32 44 0
-29 -31 44 0
42 43 44 -45 0
42 43 -44 45 0
42 -43 44 45 0
42 -43 -44 -45 0
-42 43 44 45 0
-42 43 -44 -45 0
-42 -43 44 -45 0
-42 -43 -44 45 0
-1 -46 47 0
1 -47 0
46 -47 0
-48 0
45 47 48 -49 0
45 47 -48 49 0
45 -47 48 49 0
45 -47 -48 -49 0
-45 47 48 49 0
-45 47 -48 -49 0
-45 -47 48 -49 0
-45 -47 -48 49 0
-49 -50 0
49 50 0
-34 -50 51 0
34 -51 0
50 -51 0
-52 -2 53 0
52 -53 0
2 -53 0
-35 -6 54 0
35 -54 0
6 -54 0
36 37 -55 0
36 38 -55 0
-37 -38 55 0
37 38 -55 0
-36 -38 55 0
-36 -37 55 0
53 54 55 -56 0
53 54 -55 56 0
53 -54 55 56 0
53 -54 -55 -56 0
-53 54 55 56 0
-53 54 -55 -56 0
-53 -54 55 -56 0
-53 -54 -55 56 0
-22 -16 57 0
22 -57 0
16 -57 0
39 40 -58 0
39 41 -58 0
-40 -41 58 0
40 41 -58 0
-39 -41 58 0
-39 -40 58 0
56 57 58 -59 0
56 57 -58 59 0
56 -57 58 59 0
56 -57 -58 -59 0
-56 57 58 59 0
-56 57 -58 -59 0
-56 -57 58 -59 0
-56 -57 -58 59 0
-11 -30 60 0
11 -60 0
30 -60 0
42 43 -61 0
42 44 -61 0
-43 -44 61 0
43 44 -61 0
-42 -44 61 0
-42 -43 61 0
59 60 61 -62 0
59 60 -61 62 0
59 -60 61 62 0
59 -60 -61 -62 0
-59 60 61 62 0
-59 60 -61 -62 0
-59 -60 61 -62 0
-59 -60 -61 62 0
-4 -46 63 0
4 -63 0
46 -63 0
45 47 -64 0
45 48 -64 0
-47 -48 64 0
47 48 -64 0
-45 -48 64 0
-45 -47 64 0
62 63 64 -65 0
62 63 -64 65 0
62 -63 64 65 0
62 -63 -64 -65 0
-62 63 64 65 0
-62 63 -64 -65 0
-62 -63 64 -65 0
-62 -63 -64 65 0
-1 -66 67 0
1 -67 0
66 -67 0
-68 0
65 67 68 -69 0
65 67 -68 69 0
65 -67 68 69 0
65 -67 -68 -69 0
-65 67 68 69 0
-65 67 -68 -69 0
-65 -67 68 -69 0
-65 -67 -68 69 0
-51 -69 70 0
51 -70 0
69 -70 0
-71 -2 72 0
71 -72 0
2 -72 0
-52 -6 73 0
52 -73 0
6 -73 0
53 54 -74 0
53 55 -74 0
-54 -55 74 0
54 55 -74 0
-53 -55 74 0
-53 -54 74 0
72 73 74 -75 0
72 73 -74 75 0
72 -73 74 75 0
72 -73 -74 -75 0
-72 73 74 75 0
-72 73 -74 -75 0
-72 -73 74 -75 0
-72 -73 -74 75 0
-35 -16 76 0
35 -76 0
16 -76 0
56 57 -77 0
56 58 -77 0
-57 -58 77 0
57 58 -77 0
-56 -58 77 0
-56 -57 77 0
75 76 77 -78 0
75 76 -77 78 0
75 -76 77 78 0
75 -76 -77 -78 0
-75 76 77 78 0
-75 76 -77 -78 0
-75 -76 77 -78 0
-75 -76 -77 78 0
-22 -30 79 0
22 -79 0
30 -79 0
59 60 -80 0
59 61 -80 0
-60 -61 80 0
60 61 -80 0
-59 -61 80 0
-59 -60 80 0
78 79 80 -81 0
78 79 -80 81 0
78 -79 80 81 0
78 -79 -80 -81 0
-78 79 80 81 0
-78 79 -80 -81 0
-78 -79 80 -81 0
-78 -79 -80 81 0
-11 -46 82 0
11 -82 0
46 -82 0
62 63 -83 0
62 64 -83 0
-63 -64 83 0
63 64 -83 0
-62 -64 83 0
-62 -63 83 0
81 82 83 -84 0
81 82 -83 84 0
81 -82 83 84 0
81 -82 -83 -84 0
-81 82 83 84 0
-81 82 -83 -84 0
-81 -82 83 -84 0
-81 -82 -83 84 0
-4 -66 85 0
4 -85 0
66 -85 0
65 67 -86 0
65 68 -86 0
-67 -68 86 0
67 68 -86 0
-65 -68 86 0
-65 -67 86 0
84 85 86 -87 0
84 85 -86 87 0
84 -85 86 87 0
84 -85 -86 -87 0
-84 85 86 87 0
-84 85 -86 -87 0
-84 -85 86 -87 0
-84 -85 -86 87 0
-1 -88 89 0
1 -89 0
88 -89 0
-90 0
87 89 90 -91 0
87 89 -90 91 0
87 -89 90 91 0
87 -89 -90 -91 0
-87 89 90 91 0
-87 89 -90 -91 0
-87 -89 90 -91 0
-87 -89 -90 91 0
-91 -92 0
91 92 0
-70 -92 93 0
70 -93 0
92 -93 0
-94 -2 95 0
94 -95 0
2 -95 0
-71 -6 96 0
71 -96 0
6 -96 0
72 73 -97 0
72 74 -97 0
-73 -74 97 0
73 74 -97 0
-72 -74 97 0
-72 -73 97 0
95 96 97 -98 0
95 96 -97 98 0
95 -96 97 98 0
95 -96 -97 -98 0
-95 96 97 98 0
-95 96 -97 -98 0
-95 -96 97 -98 0
-95 -96 -97 98 0
-52 -16 99 0
52 -99 0
16 -99 0
75 76 -100 0
75 77 -100 0
-76 -77 100 0
76 77 -100 0
-75 -77 100 0
-75 -76 100 0
98 99 100 -101 0
98 99 -100 101 0
98 -99 100 101 0
98 -99 -100 -101 0
-98 99 100 101 0
-98 99 -100 -101 0
-98 -99 100 -101 0
-98 -99 -100 101 0
-35 -30 102 0
35 -102 0
30 -102 0
78 79 -103 0
78 80 -103 0
-79 -80 103 0
79 80 -103 0
-78 -80 103 0
-78 -79 103 0
101 102 103 -104 0
101 102 -103 104 0
101 -102 103 104 0
101 -102 -103 -104 0
-101 102 103 104 0
-101 102 -103 -104 0
-101 -102 103 -104 0
-101 -102 -103 104 0
-22 -46 105 0
22 -105 0
46 -105 0
81 82 -106 0
81 83 -106 0
-82 -83 106 0
82 83 -106 0
-81 -83 106 0
-81 -82 106 0
104 105 106 -107 0
104 105 -106 107 0
104 -105 106 107 0
104 -105 -106 -107 0
-104 105 106 107 0
-104 105 -106 -107 0
-104 -105 106 -107 0
-104 -105 -106 107 0
-11 -66 108 0
11 -108 0
66 -108 0
84 85 -109 0
84 86 -109 0
-85 -86 109 0
85 86 -109 0
-84 -86 109 0
-84 -85 109 0
107 108 109 -110 0
107 108 -109 110 0
107 -108 109 110 0
107 -108 -109 -110 0
-107 108 109 110 0
-107 108 -109 -110 0
-107 -108 109 -110 0
-107 -108 -109 110 0
-4 -88 111 0
4 -111 0
88 -111 0
87 89 -112 0
87 90 -112 0
-89 -90 112 0
89 90 -112 0
-87 -90 112 0
-87 -89 112 0
110 111 112 -113 0
110 111 -112 113 0
110 -111 112 113 0
110 -111 -112 -113 0
-110 111 112 113 0
-110 111 -112 -113 0
-110 -111 112 -113 0
-110 -111 -112 113 0
-1 -114 115 0
1 -115 0
114 -115 0
-116 0
113 115 116 -117 0
113 115 -116 117 0
113 -115 116 117 0
113 -115 -116 -117 0
-113 115 116 117 0
-113 115 -116 -117 0
-113 -115 116 -117 0
-113 -115 -116 117 0
-93 -117 118 0
93 -118 0
117 -118 0
118 0
